334295
61,3,41,7,79,8,12,49,55,25,53,5,17,75,19,22,77,36,67,76,62,64,6,47,33,28,16,34,9,29,73,45,10,1,13,31,2,32,66,80,14,70,52,11,68,48,43,15,39,4,65,18,26,21,71,83,59,63,35,60,78,69,42,38,56,30,40,57,23,81,72,54,46,37,24,82,58,44,50,20,74,27,51